************************************************************************
file with basedata            : j60_17.bas
initial value random generator: 1524146782
************************************************************************
projects                      :  1
jobs (incl. supersource/sink ):  62
horizon                       :  316
RESOURCES
  - renewable                 :  4   R
  - nonrenewable              :  0   N
  - doubly constrained        :  0   D
************************************************************************
PROJECT INFORMATION:
pronr.  #jobs rel.date duedate tardcost  MPM-Time
    1     60      0       67       17       67
************************************************************************
PRECEDENCE RELATIONS:
jobnr.    #modes  #successors   successors
   1        1          3           2   3   4
   2        1          3           5  11  17
   3        1          3           7   9  10
   4        1          2          15  27
   5        1          2           6  14
   6        1          2          44  47
   7        1          3           8  13  16
   8        1          3          25  31  33
   9        1          3          18  23  35
  10        1          2          12  50
  11        1          3          19  24  26
  12        1          3          21  51  52
  13        1          1          15
  14        1          1          60
  15        1          1          20
  16        1          3          22  29  59
  17        1          2          23  46
  18        1          3          34  36  37
  19        1          1          42
  20        1          1          30
  21        1          1          41
  22        1          1          36
  23        1          1          38
  24        1          1          53
  25        1          1          50
  26        1          2          32  40
  27        1          2          28  49
  28        1          2          52  57
  29        1          1          46
  30        1          1          43
  31        1          1          60
  32        1          1          58
  33        1          1          43
  34        1          1          44
  35        1          2          42  49
  36        1          1          46
  37        1          1          39
  38        1          1          42
  39        1          1          56
  40        1          1          45
  41        1          2          48  56
  42        1          1          43
  43        1          1          51
  44        1          1          50
  45        1          1          51
  46        1          2          48  55
  47        1          1          61
  48        1          1          60
  49        1          1          57
  50        1          2          52  54
  51        1          1          56
  52        1          1          58
  53        1          1          55
  54        1          1          61
  55        1          1          61
  56        1          1          57
  57        1          1          59
  58        1          1          59
  59        1          1          62
  60        1          1          62
  61        1          1          62
  62        1          0        
************************************************************************
REQUESTS/DURATIONS:
jobnr. mode duration  R 1  R 2  R 3  R 4
------------------------------------------------------------------------
  1      1     0       0    0    0    0
  2      1     7       0    0    0    7
  3      1     6       0    0   10    0
  4      1     1       0    0    0    2
  5      1     1       0    0    6    0
  6      1     1       5    0    0    0
  7      1     8       0    0    5    0
  8      1     3       0    9    0    0
  9      1     6       0    0    9    0
 10      1     3       0    0    8    0
 11      1     8       0    0    0   10
 12      1     1       7    0    0    0
 13      1     1       0    0    0   10
 14      1     5       0    9    0    0
 15      1     9       0    0    2    0
 16      1     5       5    0    0    0
 17      1     1       1    0    0    0
 18      1     4       0    9    0    0
 19      1     9       7    0    0    0
 20      1     6       0    7    0    0
 21      1     6       0    9    0    0
 22      1     1       3    0    0    0
 23      1     6       5    0    0    0
 24      1     3       6    0    0    0
 25      1    10       0   10    0    0
 26      1     7       0    5    0    0
 27      1     5       8    0    0    0
 28      1    10       0    0    0    2
 29      1     5       0    0    5    0
 30      1     7       0    0   10    0
 31      1     8       0    0    0    7
 32      1     8       0    8    0    0
 33      1     7       0    0    0    8
 34      1     8       0    0   10    0
 35      1     6       6    0    0    0
 36      1     6       0    9    0    0
 37      1     7       0    0    0    2
 38      1     5      10    0    0    0
 39      1     8       0    9    0    0
 40      1     9       0    0    5    0
 41      1     6       0    0    0    5
 42      1     1       0    6    0    0
 43      1     1       8    0    0    0
 44      1     2       0    4    0    0
 45      1     6       0    0    1    0
 46      1     5       0    0    0    6
 47      1     2       0    3    0    0
 48      1     6       0    0    1    0
 49      1     5       6    0    0    0
 50      1     1       0    0    1    0
 51      1     4       0   10    0    0
 52      1     4       0    0   10    0
 53      1     4      10    0    0    0
 54      1     9       6    0    0    0
 55      1     9       0    0    4    0
 56      1     8       0    0    0    7
 57      1     8       0    0    1    0
 58      1     5       0    0    2    0
 59      1     9       0    0    3    0
 60      1     1       7    0    0    0
 61      1     3       0    0    0   10
 62      1     0       0    0    0    0
************************************************************************
RESOURCEAVAILABILITIES:
  R 1  R 2  R 3  R 4
   16   19   14   12
************************************************************************
Job	#risk	Type	VL	mu	sigma	Type	VL	mu	sigma
7	1	6	0.05	7.5	0.375
8	1	3	0.2	3.75	0.75
9	2	6	0.2	7.5	1.5	7	0.2	8.75	1.75
14	2	5	0.05	6.25	0.3125	8	0.1	10	1
17	2	4	0.05	5	0.25	6	0.05	7.5	0.375
19	2	3	0.05	3.75	0.1875	6	0.05	7.5	0.375
22	2	1	0.05	1.25	0.0625	6	0.2	7.5	1.5
27	2	5	0.05	6.25	0.3125	6	0.1	7.5	0.75
32	1	5	0.1	6.25	0.625
33	2	1	0.05	1.25	0.0625	7	0.1	8.75	0.875
39	2	3	0.1	3.75	0.375	5	0.1	6.25	0.625
41	1	4	0.1	5	0.5
42	2	5	0.05	6.25	0.3125	6	0.05	7.5	0.375
48	2	6	0.05	7.5	0.375	7	0.1	8.75	0.875
49	1	5	0.2	6.25	1.25
52	2	3	0.1	3.75	0.375	8	0.2	10	2
54	2	4	0.2	5	1	7	0.1	8.75	0.875
58	2	3	0.2	3.75	0.75	5	0.1	6.25	0.625
